\Generated by Cardinal Operations

Maximize
   1510.9 x_('C','B')14:15_f + 496.51 x_('C','B')14:15_l 
   + 1653.2 x_('A','C')0:00_f + 473.63 x_('A','C')0:00_l 
   + 1443.6 x_('B','A')9:05_f + 424.67 x_('B','A')9:05_l 
   + 1669.65 x_('A','C')15:45_f + 506.95 x_('A','C')15:45_l 
   + 1466.01 x_('A','B')19:10_f + 433.96 x_('A','B')19:10_l 
Subject To
 capacity_constraint_('C','B')14:15: 1.2 x_('C','B')14:15_f 
   + x_('C','B')14:15_l <= 187
 balance_constraint_('C','B')14:15: 1.72 x_('C','B')14:15_0 
   + 0.97 x_('C','B')14:15_f + 0.97 x_('C','B')14:15_l <= 39.64
 scale_constraint_('C','B')14:15_f: 2.826 x_('C','B')14:15_0 
   - 1.2 x_('C','B')14:15_f >= 0
 scale_constraint_('C','B')14:15_l: 1.475 x_('C','B')14:15_0 
   - 1.2 x_('C','B')14:15_l >= 0
 capacity_constraint_('A','C')0:00: 1.2 x_('A','C')0:00_f 
   + x_('A','C')0:00_l <= 187
 balance_constraint_('A','C')0:00: 4.92 x_('A','C')0:00_0 
   + 0.72 x_('A','C')0:00_f + 0.72 x_('A','C')0:00_l <= 156.57
 scale_constraint_('A','C')0:00_f: 2.671 x_('A','C')0:00_0 
   - 0.9 x_('A','C')0:00_f >= 0
 scale_constraint_('A','C')0:00_l: 1.303 x_('A','C')0:00_0 
   - 0.9 x_('A','C')0:00_l >= 0
 capacity_constraint_('B','A')9:05: 1.2 x_('B','A')9:05_f 
   + x_('B','A')9:05_l <= 187
 balance_constraint_('B','A')9:05: 3.7 x_('B','A')9:05_0 
   + 0.9 x_('B','A')9:05_f + 0.9 x_('B','A')9:05_l <= 166.14
 scale_constraint_('B','A')9:05_f: 1.864 x_('B','A')9:05_0 
   - 2 x_('B','A')9:05_f >= 0
 scale_constraint_('B','A')9:05_l: x_('B','A')9:05_0 - 2 x_('B','A')9:05_l 
   >= 0
 capacity_constraint_('A','C')15:45: 1.2 x_('A','C')15:45_f 
   + x_('A','C')15:45_l <= 187
 balance_constraint_('A','C')15:45: 4.92 x_('A','C')15:45_0 
   + 0.72 x_('A','C')15:45_f + 0.72 x_('A','C')15:45_l <= 154.21
 scale_constraint_('A','C')15:45_f: 2.803 x_('A','C')15:45_0 
   - 0.9 x_('A','C')15:45_f >= 0
 scale_constraint_('A','C')15:45_l: 1.367 x_('A','C')15:45_0 
   - 0.9 x_('A','C')15:45_l >= 0
 capacity_constraint_('A','B')19:10: 1.2 x_('A','B')19:10_f 
   + x_('A','B')19:10_l <= 187
 balance_constraint_('A','B')19:10: 4.92 x_('A','B')19:10_0 
   + 0.72 x_('A','B')19:10_f + 0.72 x_('A','B')19:10_l <= 141.78
 scale_constraint_('A','B')19:10_f: 1.624 x_('A','B')19:10_0 
   - 0.9 x_('A','B')19:10_f >= 0
 scale_constraint_('A','B')19:10_l: 0.793 x_('A','B')19:10_0 
   - 0.9 x_('A','B')19:10_l >= 0
END

